43 1507
430 957
778 962
85 1471
1470 725
177 91
187 545
1416 205
1472 1400
1529 1375
656 769
1445 1042
1204 1465
182 256
1322 416
448 177
1494 711
1444 219
1050 166
544 1356
500 173
66 979
1319 1244
1252 624
309 260
658 662
1187 971
161 552
573 954
972 687
220 94
1054 173
645 583
204 1015
744 458
591 133
411 1494
585 563
881 1237
476 971
49 599
1106 1455
814 567
1171 1430
147 1246
222 1535
152 273
907 1075
784 1421
1103 211
